<instance format="XCSP3" type="COP">
  <variables>
    <var id="x" note="x is the number of unused bins"> 0..23 </var>
    <array id="b" note="b[i][j] indicates the weight of the jth object put in the ith bin. It is 0 if there is no object at this place." size="[23][3]"> 0 250 251 253 256 257 260 265 266 268 270 271 274 277 278 280 284 285 291 292 294 299 301 310 318 320 322 323 332 335 347 351 355 357 360 366 383 388 398 400 403 417 419 423 424 428 439..441 448 464 472 478 491 </array>
  </variables>
  <constraints>
    <group>
      <mdd>
        <list> %... </list>
        <transitions> (root,0,n3)(root,250,n5)(root,251,n6)(root,253,n8)(root,256,n10)(root,257,n11)(root,260,n11)(root,265,n14)(root,266,n16)(root,268,n18)(root,270,n20)(root,271,n21)(root,274,n23)(root,277,n25)(root,278,n27)(root,280,n29)(root,284,n32)(root,285,n34)(root,291,n35)(root,292,n37)(root,294,n39)(root,299,n41)(root,301,n43)(root,310,n45)(root,318,n47)(root,320,n49)(root,322,n51)(root,323,n53)(root,332,n55)(root,335,n57)(root,347,n59)(root,351,n60)(root,355,n61)(root,357,n62)(root,360,n63)(root,366,n64)(root,383,n65)(root,388,n66)(root,398,n67)(root,400,n68)(root,403,n69)(root,417,n70)(root,419,n71)(root,423,n72)(root,424,n73)(root,428,n75)(root,439,n76)(root,440,n77)(root,441,n78)(root,448,n79)(root,464,n80)(root,472,n81)(root,478,n82)(root,491,n83)(n3,0,n4)(n4,0,nodeT)(n5,0,n4)(n5,250,n4)(n6,0,n4)(n6,250,n7)(n6,251,n7)(n7,0,nodeT)(n7,250,nodeT)(n8,0,n4)(n8,250,n7)(n8,251,n9)(n9,0,nodeT)(n9,250,nodeT)(n9,251,nodeT)(n10,0,n4)(n10,250,n7)(n10,251,n9)(n10,253,n9)(n11,0,n4)(n11,250,n7)(n11,251,n9)(n11,253,n9)(n11,256,n12)(n11,257,n13)(n12,0,nodeT)(n12,250,nodeT)(n12,251,nodeT)(n12,253,nodeT)(n13,0,nodeT)(n13,250,nodeT)(n13,251,nodeT)(n13,253,nodeT)(n13,256,nodeT)(n13,257,nodeT)(n14,0,n4)(n14,250,n7)(n14,251,n9)(n14,253,n9)(n14,256,n12)(n14,257,n13)(n14,260,n13)(n14,265,n15)(n15,0,nodeT)(n15,250,nodeT)(n15,251,nodeT)(n15,253,nodeT)(n15,256,nodeT)(n15,257,nodeT)(n15,260,nodeT)(n16,0,n4)(n16,250,n7)(n16,251,n9)(n16,253,n9)(n16,256,n12)(n16,257,n13)(n16,260,n13)(n16,265,n17)(n16,266,n17)(n17,0,nodeT)(n17,250,nodeT)(n17,251,nodeT)(n17,253,nodeT)(n17,256,nodeT)(n17,257,nodeT)(n17,260,nodeT)(n17,265,nodeT)(n18,0,n4)(n18,250,n7)(n18,251,n9)(n18,253,n9)(n18,256,n12)(n18,257,n13)(n18,260,n13)(n18,265,n17)(n18,266,n19)(n19,0,nodeT)(n19,250,nodeT)(n19,251,nodeT)(n19,253,nodeT)(n19,256,nodeT)(n19,257,nodeT)(n19,260,nodeT)(n19,265,nodeT)(n19,266,nodeT)(n20,0,n4)(n20,250,n7)(n20,251,n9)(n20,253,n9)(n20,256,n12)(n20,257,n13)(n20,260,n13)(n20,265,n17)(n20,266,n19)(n20,268,n19)(n21,0,n4)(n21,250,n7)(n21,251,n9)(n21,253,n9)(n21,256,n12)(n21,257,n13)(n21,260,n13)(n21,265,n17)(n21,266,n19)(n21,268,n19)(n21,270,n22)(n22,0,nodeT)(n22,250,nodeT)(n22,251,nodeT)(n22,253,nodeT)(n22,256,nodeT)(n22,257,nodeT)(n22,260,nodeT)(n22,265,nodeT)(n22,266,nodeT)(n22,268,nodeT)(n23,0,n4)(n23,250,n7)(n23,251,n9)(n23,253,n9)(n23,256,n12)(n23,257,n13)(n23,260,n13)(n23,265,n17)(n23,266,n19)(n23,268,n19)(n23,270,n22)(n23,271,n24)(n24,0,nodeT)(n24,250,nodeT)(n24,251,nodeT)(n24,253,nodeT)(n24,256,nodeT)(n24,257,nodeT)(n24,260,nodeT)(n24,265,nodeT)(n24,266,nodeT)(n24,268,nodeT)(n24,270,nodeT)(n25,0,n4)(n25,250,n7)(n25,251,n9)(n25,253,n9)(n25,256,n12)(n25,257,n13)(n25,260,n13)(n25,265,n17)(n25,266,n19)(n25,268,n19)(n25,270,n22)(n25,271,n24)(n25,274,n26)(n26,0,nodeT)(n26,250,nodeT)(n26,251,nodeT)(n26,253,nodeT)(n26,256,nodeT)(n26,257,nodeT)(n26,260,nodeT)(n26,265,nodeT)(n26,266,nodeT)(n26,268,nodeT)(n26,270,nodeT)(n26,271,nodeT)(n27,0,n4)(n27,250,n7)(n27,251,n9)(n27,253,n9)(n27,256,n12)(n27,257,n13)(n27,260,n13)(n27,265,n17)(n27,266,n19)(n27,268,n19)(n27,270,n22)(n27,271,n24)(n27,274,n26)(n27,277,n28)(n28,0,nodeT)(n28,250,nodeT)(n28,251,nodeT)(n28,253,nodeT)(n28,256,nodeT)(n28,257,nodeT)(n28,260,nodeT)(n28,265,nodeT)(n28,266,nodeT)(n28,268,nodeT)(n28,270,nodeT)(n28,271,nodeT)(n28,274,nodeT)(n29,0,n4)(n29,250,n7)(n29,251,n9)(n29,253,n9)(n29,256,n12)(n29,257,n13)(n29,260,n13)(n29,265,n17)(n29,266,n19)(n29,268,n19)(n29,270,n22)(n29,271,n24)(n29,274,n26)(n29,277,n28)(n29,278,n30)(n29,280,n31)(n30,0,nodeT)(n30,250,nodeT)(n30,251,nodeT)(n30,253,nodeT)(n30,256,nodeT)(n30,257,nodeT)(n30,260,nodeT)(n30,265,nodeT)(n30,266,nodeT)(n30,268,nodeT)(n30,270,nodeT)(n30,271,nodeT)(n30,274,nodeT)(n30,277,nodeT)(n31,0,nodeT)(n31,250,nodeT)(n31,251,nodeT)(n31,253,nodeT)(n31,256,nodeT)(n31,257,nodeT)(n31,260,nodeT)(n31,265,nodeT)(n31,266,nodeT)(n31,268,nodeT)(n31,270,nodeT)(n31,271,nodeT)(n31,274,nodeT)(n31,277,nodeT)(n31,278,nodeT)(n32,0,n4)(n32,250,n7)(n32,251,n9)(n32,253,n9)(n32,256,n12)(n32,257,n13)(n32,260,n13)(n32,265,n17)(n32,266,n19)(n32,268,n19)(n32,270,n22)(n32,271,n24)(n32,274,n26)(n32,277,n28)(n32,278,n30)(n32,280,n33)(n33,0,nodeT)(n33,250,nodeT)(n33,251,nodeT)(n33,253,nodeT)(n33,256,nodeT)(n33,257,nodeT)(n33,260,nodeT)(n33,265,nodeT)(n33,266,nodeT)(n33,268,nodeT)(n33,270,nodeT)(n33,271,nodeT)(n33,274,nodeT)(n33,277,nodeT)(n33,278,nodeT)(n33,280,nodeT)(n34,0,n4)(n34,250,n7)(n34,251,n9)(n34,253,n9)(n34,256,n12)(n34,257,n13)(n34,260,n13)(n34,265,n17)(n34,266,n19)(n34,268,n19)(n34,270,n22)(n34,271,n24)(n34,274,n26)(n34,277,n28)(n34,278,n30)(n34,280,n33)(n34,284,n33)(n35,0,n4)(n35,250,n7)(n35,251,n9)(n35,253,n9)(n35,256,n12)(n35,257,n13)(n35,260,n13)(n35,265,n17)(n35,266,n19)(n35,268,n19)(n35,270,n22)(n35,271,n24)(n35,274,n26)(n35,277,n28)(n35,278,n30)(n35,280,n33)(n35,284,n33)(n35,285,n36)(n36,0,nodeT)(n36,250,nodeT)(n36,251,nodeT)(n36,253,nodeT)(n36,256,nodeT)(n36,257,nodeT)(n36,260,nodeT)(n36,265,nodeT)(n36,266,nodeT)(n36,268,nodeT)(n36,270,nodeT)(n36,271,nodeT)(n36,274,nodeT)(n36,277,nodeT)(n36,278,nodeT)(n36,280,nodeT)(n36,284,nodeT)(n37,0,n4)(n37,250,n7)(n37,251,n9)(n37,253,n9)(n37,256,n12)(n37,257,n13)(n37,260,n13)(n37,265,n17)(n37,266,n19)(n37,268,n19)(n37,270,n22)(n37,271,n24)(n37,274,n26)(n37,277,n28)(n37,278,n30)(n37,280,n33)(n37,284,n33)(n37,285,n36)(n37,291,n38)(n38,0,nodeT)(n38,250,nodeT)(n38,251,nodeT)(n38,253,nodeT)(n38,256,nodeT)(n38,257,nodeT)(n38,260,nodeT)(n38,265,nodeT)(n38,266,nodeT)(n38,268,nodeT)(n38,270,nodeT)(n38,271,nodeT)(n38,274,nodeT)(n38,277,nodeT)(n38,278,nodeT)(n38,280,nodeT)(n38,284,nodeT)(n38,285,nodeT)(n39,0,n4)(n39,250,n7)(n39,251,n9)(n39,253,n9)(n39,256,n12)(n39,257,n13)(n39,260,n13)(n39,265,n17)(n39,266,n19)(n39,268,n19)(n39,270,n22)(n39,271,n24)(n39,274,n26)(n39,277,n28)(n39,278,n30)(n39,280,n33)(n39,284,n33)(n39,285,n36)(n39,291,n38)(n39,292,n40)(n40,0,nodeT)(n40,250,nodeT)(n40,251,nodeT)(n40,253,nodeT)(n40,256,nodeT)(n40,257,nodeT)(n40,260,nodeT)(n40,265,nodeT)(n40,266,nodeT)(n40,268,nodeT)(n40,270,nodeT)(n40,271,nodeT)(n40,274,nodeT)(n40,277,nodeT)(n40,278,nodeT)(n40,280,nodeT)(n40,284,nodeT)(n40,285,nodeT)(n40,291,nodeT)(n41,0,n4)(n41,250,n7)(n41,251,n9)(n41,253,n9)(n41,256,n12)(n41,257,n13)(n41,260,n13)(n41,265,n17)(n41,266,n19)(n41,268,n19)(n41,270,n22)(n41,271,n24)(n41,274,n26)(n41,277,n28)(n41,278,n30)(n41,280,n33)(n41,284,n33)(n41,285,n36)(n41,291,n38)(n41,292,n40)(n41,294,n42)(n42,0,nodeT)(n42,250,nodeT)(n42,251,nodeT)(n42,253,nodeT)(n42,256,nodeT)(n42,257,nodeT)(n42,260,nodeT)(n42,265,nodeT)(n42,266,nodeT)(n42,268,nodeT)(n42,270,nodeT)(n42,271,nodeT)(n42,274,nodeT)(n42,277,nodeT)(n42,278,nodeT)(n42,280,nodeT)(n42,284,nodeT)(n42,285,nodeT)(n42,291,nodeT)(n42,292,nodeT)(n43,0,n4)(n43,250,n7)(n43,251,n9)(n43,253,n9)(n43,256,n12)(n43,257,n13)(n43,260,n13)(n43,265,n17)(n43,266,n19)(n43,268,n19)(n43,270,n22)(n43,271,n24)(n43,274,n26)(n43,277,n28)(n43,278,n30)(n43,280,n33)(n43,284,n33)(n43,285,n36)(n43,291,n38)(n43,292,n40)(n43,294,n42)(n43,299,n44)(n44,0,nodeT)(n44,250,nodeT)(n44,251,nodeT)(n44,253,nodeT)(n44,256,nodeT)(n44,257,nodeT)(n44,260,nodeT)(n44,265,nodeT)(n44,266,nodeT)(n44,268,nodeT)(n44,270,nodeT)(n44,271,nodeT)(n44,274,nodeT)(n44,277,nodeT)(n44,278,nodeT)(n44,280,nodeT)(n44,284,nodeT)(n44,285,nodeT)(n44,291,nodeT)(n44,292,nodeT)(n44,294,nodeT)(n45,0,n4)(n45,250,n7)(n45,251,n9)(n45,253,n9)(n45,256,n12)(n45,257,n13)(n45,260,n13)(n45,265,n17)(n45,266,n19)(n45,268,n19)(n45,270,n22)(n45,271,n24)(n45,274,n26)(n45,277,n28)(n45,278,n30)(n45,280,n33)(n45,284,n33)(n45,285,n36)(n45,291,n38)(n45,292,n40)(n45,294,n42)(n45,299,n44)(n45,301,n46)(n46,0,nodeT)(n46,250,nodeT)(n46,251,nodeT)(n46,253,nodeT)(n46,256,nodeT)(n46,257,nodeT)(n46,260,nodeT)(n46,265,nodeT)(n46,266,nodeT)(n46,268,nodeT)(n46,270,nodeT)(n46,271,nodeT)(n46,274,nodeT)(n46,277,nodeT)(n46,278,nodeT)(n46,280,nodeT)(n46,284,nodeT)(n46,285,nodeT)(n46,291,nodeT)(n46,292,nodeT)(n46,294,nodeT)(n46,299,nodeT)(n47,0,n4)(n47,250,n7)(n47,251,n9)(n47,253,n9)(n47,256,n12)(n47,257,n13)(n47,260,n13)(n47,265,n17)(n47,266,n19)(n47,268,n19)(n47,270,n22)(n47,271,n24)(n47,274,n26)(n47,277,n28)(n47,278,n30)(n47,280,n33)(n47,284,n33)(n47,285,n36)(n47,291,n38)(n47,292,n40)(n47,294,n42)(n47,299,n44)(n47,301,n46)(n47,310,n48)(n48,0,nodeT)(n48,250,nodeT)(n48,251,nodeT)(n48,253,nodeT)(n48,256,nodeT)(n48,257,nodeT)(n48,260,nodeT)(n48,265,nodeT)(n48,266,nodeT)(n48,268,nodeT)(n48,270,nodeT)(n48,271,nodeT)(n48,274,nodeT)(n48,277,nodeT)(n48,278,nodeT)(n48,280,nodeT)(n48,284,nodeT)(n48,285,nodeT)(n48,291,nodeT)(n48,292,nodeT)(n48,294,nodeT)(n48,299,nodeT)(n48,301,nodeT)(n49,0,n4)(n49,250,n7)(n49,251,n9)(n49,253,n9)(n49,256,n12)(n49,257,n13)(n49,260,n13)(n49,265,n17)(n49,266,n19)(n49,268,n19)(n49,270,n22)(n49,271,n24)(n49,274,n26)(n49,277,n28)(n49,278,n30)(n49,280,n33)(n49,284,n33)(n49,285,n36)(n49,291,n38)(n49,292,n40)(n49,294,n42)(n49,299,n44)(n49,301,n46)(n49,310,n48)(n49,318,n50)(n50,0,nodeT)(n50,250,nodeT)(n50,251,nodeT)(n50,253,nodeT)(n50,256,nodeT)(n50,257,nodeT)(n50,260,nodeT)(n50,265,nodeT)(n50,266,nodeT)(n50,268,nodeT)(n50,270,nodeT)(n50,271,nodeT)(n50,274,nodeT)(n50,277,nodeT)(n50,278,nodeT)(n50,280,nodeT)(n50,284,nodeT)(n50,285,nodeT)(n50,291,nodeT)(n50,292,nodeT)(n50,294,nodeT)(n50,299,nodeT)(n50,301,nodeT)(n50,310,nodeT)(n51,0,n4)(n51,250,n7)(n51,251,n9)(n51,253,n9)(n51,256,n12)(n51,257,n13)(n51,260,n13)(n51,265,n17)(n51,266,n19)(n51,268,n19)(n51,270,n22)(n51,271,n24)(n51,274,n26)(n51,277,n28)(n51,278,n30)(n51,280,n33)(n51,284,n33)(n51,285,n36)(n51,291,n38)(n51,292,n40)(n51,294,n42)(n51,299,n44)(n51,301,n46)(n51,310,n48)(n51,318,n50)(n51,320,n52)(n52,0,nodeT)(n52,250,nodeT)(n52,251,nodeT)(n52,253,nodeT)(n52,256,nodeT)(n52,257,nodeT)(n52,260,nodeT)(n52,265,nodeT)(n52,266,nodeT)(n52,268,nodeT)(n52,270,nodeT)(n52,271,nodeT)(n52,274,nodeT)(n52,277,nodeT)(n52,278,nodeT)(n52,280,nodeT)(n52,284,nodeT)(n52,285,nodeT)(n52,291,nodeT)(n52,292,nodeT)(n52,294,nodeT)(n52,299,nodeT)(n52,301,nodeT)(n52,310,nodeT)(n52,318,nodeT)(n53,0,n4)(n53,250,n7)(n53,251,n9)(n53,253,n9)(n53,256,n12)(n53,257,n13)(n53,260,n13)(n53,265,n17)(n53,266,n19)(n53,268,n19)(n53,270,n22)(n53,271,n24)(n53,274,n26)(n53,277,n28)(n53,278,n30)(n53,280,n33)(n53,284,n33)(n53,285,n36)(n53,291,n38)(n53,292,n40)(n53,294,n42)(n53,299,n44)(n53,301,n46)(n53,310,n48)(n53,318,n50)(n53,320,n52)(n53,322,n54)(n54,0,nodeT)(n54,250,nodeT)(n54,251,nodeT)(n54,253,nodeT)(n54,256,nodeT)(n54,257,nodeT)(n54,260,nodeT)(n54,265,nodeT)(n54,266,nodeT)(n54,268,nodeT)(n54,270,nodeT)(n54,271,nodeT)(n54,274,nodeT)(n54,277,nodeT)(n54,278,nodeT)(n54,280,nodeT)(n54,284,nodeT)(n54,285,nodeT)(n54,291,nodeT)(n54,292,nodeT)(n54,294,nodeT)(n54,299,nodeT)(n54,301,nodeT)(n54,310,nodeT)(n54,318,nodeT)(n54,320,nodeT)(n55,0,n4)(n55,250,n7)(n55,251,n9)(n55,253,n9)(n55,256,n12)(n55,257,n13)(n55,260,n13)(n55,265,n17)(n55,266,n19)(n55,268,n19)(n55,270,n22)(n55,271,n24)(n55,274,n26)(n55,277,n28)(n55,278,n30)(n55,280,n33)(n55,284,n33)(n55,285,n36)(n55,291,n38)(n55,292,n40)(n55,294,n42)(n55,299,n44)(n55,301,n46)(n55,310,n48)(n55,318,n50)(n55,320,n52)(n55,322,n54)(n55,323,n56)(n56,0,nodeT)(n56,250,nodeT)(n56,251,nodeT)(n56,253,nodeT)(n56,256,nodeT)(n56,257,nodeT)(n56,260,nodeT)(n56,265,nodeT)(n56,266,nodeT)(n56,268,nodeT)(n56,270,nodeT)(n56,271,nodeT)(n56,274,nodeT)(n56,277,nodeT)(n56,278,nodeT)(n56,280,nodeT)(n56,284,nodeT)(n56,285,nodeT)(n56,291,nodeT)(n56,292,nodeT)(n56,294,nodeT)(n56,299,nodeT)(n56,301,nodeT)(n56,310,nodeT)(n56,318,nodeT)(n56,320,nodeT)(n56,322,nodeT)(n57,0,n4)(n57,250,n7)(n57,251,n9)(n57,253,n9)(n57,256,n12)(n57,257,n13)(n57,260,n13)(n57,265,n17)(n57,266,n19)(n57,268,n19)(n57,270,n22)(n57,271,n24)(n57,274,n26)(n57,277,n28)(n57,278,n30)(n57,280,n33)(n57,284,n33)(n57,285,n36)(n57,291,n38)(n57,292,n40)(n57,294,n42)(n57,299,n44)(n57,301,n46)(n57,310,n48)(n57,318,n50)(n57,320,n52)(n57,322,n54)(n57,323,n56)(n57,332,n58)(n58,0,nodeT)(n58,250,nodeT)(n58,251,nodeT)(n58,253,nodeT)(n58,256,nodeT)(n58,257,nodeT)(n58,260,nodeT)(n58,265,nodeT)(n58,266,nodeT)(n58,268,nodeT)(n58,270,nodeT)(n58,271,nodeT)(n58,274,nodeT)(n58,277,nodeT)(n58,278,nodeT)(n58,280,nodeT)(n58,284,nodeT)(n58,285,nodeT)(n58,291,nodeT)(n58,292,nodeT)(n58,294,nodeT)(n58,299,nodeT)(n58,301,nodeT)(n58,310,nodeT)(n58,318,nodeT)(n58,320,nodeT)(n58,322,nodeT)(n58,323,nodeT)(n59,0,n4)(n59,250,n7)(n59,251,n9)(n59,253,n9)(n59,256,n12)(n59,257,n13)(n59,260,n13)(n59,265,n17)(n59,266,n19)(n59,268,n19)(n59,270,n22)(n59,271,n24)(n59,274,n26)(n59,277,n28)(n59,278,n30)(n59,280,n33)(n59,284,n33)(n59,285,n36)(n59,291,n38)(n59,292,n40)(n59,294,n42)(n59,299,n44)(n59,301,n46)(n59,310,n48)(n59,318,n50)(n59,320,n52)(n59,322,n54)(n59,323,n56)(n59,332,n54)(n59,335,n52)(n60,0,n4)(n60,250,n7)(n60,251,n9)(n60,253,n9)(n60,256,n12)(n60,257,n13)(n60,260,n13)(n60,265,n17)(n60,266,n19)(n60,268,n19)(n60,270,n22)(n60,271,n24)(n60,274,n26)(n60,277,n28)(n60,278,n30)(n60,280,n33)(n60,284,n33)(n60,285,n36)(n60,291,n38)(n60,292,n40)(n60,294,n42)(n60,299,n44)(n60,301,n46)(n60,310,n48)(n60,318,n50)(n60,320,n52)(n60,322,n54)(n60,323,n56)(n60,332,n50)(n60,335,n50)(n60,347,n48)(n61,0,n4)(n61,250,n7)(n61,251,n9)(n61,253,n9)(n61,256,n12)(n61,257,n13)(n61,260,n13)(n61,265,n17)(n61,266,n19)(n61,268,n19)(n61,270,n22)(n61,271,n24)(n61,274,n26)(n61,277,n28)(n61,278,n30)(n61,280,n33)(n61,284,n33)(n61,285,n36)(n61,291,n38)(n61,292,n40)(n61,294,n42)(n61,299,n44)(n61,301,n46)(n61,310,n48)(n61,318,n50)(n61,320,n52)(n61,322,n54)(n61,323,n56)(n61,332,n50)(n61,335,n50)(n61,347,n44)(n61,351,n44)(n62,0,n4)(n62,250,n7)(n62,251,n9)(n62,253,n9)(n62,256,n12)(n62,257,n13)(n62,260,n13)(n62,265,n17)(n62,266,n19)(n62,268,n19)(n62,270,n22)(n62,271,n24)(n62,274,n26)(n62,277,n28)(n62,278,n30)(n62,280,n33)(n62,284,n33)(n62,285,n36)(n62,291,n38)(n62,292,n40)(n62,294,n42)(n62,299,n44)(n62,301,n46)(n62,310,n48)(n62,318,n50)(n62,320,n52)(n62,322,n54)(n62,323,n54)(n62,332,n50)(n62,335,n48)(n62,347,n44)(n62,351,n42)(n62,355,n38)(n63,0,n4)(n63,250,n7)(n63,251,n9)(n63,253,n9)(n63,256,n12)(n63,257,n13)(n63,260,n13)(n63,265,n17)(n63,266,n19)(n63,268,n19)(n63,270,n22)(n63,271,n24)(n63,274,n26)(n63,277,n28)(n63,278,n30)(n63,280,n33)(n63,284,n33)(n63,285,n36)(n63,291,n38)(n63,292,n40)(n63,294,n42)(n63,299,n44)(n63,301,n46)(n63,310,n48)(n63,318,n50)(n63,320,n52)(n63,322,n52)(n63,323,n50)(n63,332,n48)(n63,335,n48)(n63,347,n42)(n63,351,n38)(n63,355,n38)(n63,357,n33)(n64,0,n4)(n64,250,n7)(n64,251,n9)(n64,253,n9)(n64,256,n12)(n64,257,n13)(n64,260,n13)(n64,265,n17)(n64,266,n19)(n64,268,n19)(n64,270,n22)(n64,271,n24)(n64,274,n26)(n64,277,n28)(n64,278,n30)(n64,280,n33)(n64,284,n33)(n64,285,n36)(n64,291,n38)(n64,292,n40)(n64,294,n42)(n64,299,n44)(n64,301,n46)(n64,310,n48)(n64,318,n50)(n64,320,n50)(n64,322,n50)(n64,323,n50)(n64,332,n48)(n64,335,n46)(n64,347,n38)(n64,351,n33)(n64,355,n31)(n64,357,n30)(n64,360,n28)(n65,0,n4)(n65,250,n7)(n65,251,n9)(n65,253,n9)(n65,256,n12)(n65,257,n13)(n65,260,n13)(n65,265,n17)(n65,266,n19)(n65,268,n19)(n65,270,n22)(n65,271,n24)(n65,274,n26)(n65,277,n28)(n65,278,n30)(n65,280,n33)(n65,284,n33)(n65,285,n36)(n65,291,n38)(n65,292,n40)(n65,294,n42)(n65,299,n44)(n65,301,n46)(n65,310,n48)(n65,318,n46)(n65,320,n44)(n65,322,n44)(n65,323,n44)(n65,332,n38)(n65,335,n33)(n65,347,n24)(n65,351,n19)(n65,355,n15)(n65,357,n15)(n65,360,n13)(n65,366,n9)(n66,0,n4)(n66,250,n7)(n66,251,n9)(n66,253,n9)(n66,256,n12)(n66,257,n13)(n66,260,n13)(n66,265,n17)(n66,266,n19)(n66,268,n19)(n66,270,n22)(n66,271,n24)(n66,274,n26)(n66,277,n28)(n66,278,n30)(n66,280,n33)(n66,284,n33)(n66,285,n36)(n66,291,n38)(n66,292,n40)(n66,294,n42)(n66,299,n44)(n66,301,n46)(n66,310,n48)(n66,318,n44)(n66,320,n42)(n66,322,n38)(n66,323,n38)(n66,332,n33)(n66,335,n30)(n66,347,n17)(n66,351,n15)(n66,355,n13)(n66,357,n12)(n66,360,n9)(n66,366,n4)(n66,383,n4)(n67,0,n4)(n67,250,n7)(n67,251,n9)(n67,253,n9)(n67,256,n12)(n67,257,n13)(n67,260,n13)(n67,265,n17)(n67,266,n19)(n67,268,n19)(n67,270,n22)(n67,271,n24)(n67,274,n26)(n67,277,n28)(n67,278,n30)(n67,280,n33)(n67,284,n33)(n67,285,n36)(n67,291,n38)(n67,292,n40)(n67,294,n42)(n67,299,n44)(n67,301,n46)(n67,310,n42)(n67,318,n36)(n67,320,n33)(n67,322,n33)(n67,323,n31)(n67,332,n24)(n67,335,n19)(n67,347,n12)(n67,351,n9)(n67,355,n4)(n67,357,n4)(n67,360,n4)(n67,366,n4)(n67,383,n4)(n67,388,n4)(n68,0,n4)(n68,250,n7)(n68,251,n9)(n68,253,n9)(n68,256,n12)(n68,257,n13)(n68,260,n13)(n68,265,n17)(n68,266,n19)(n68,268,n19)(n68,270,n22)(n68,271,n24)(n68,274,n26)(n68,277,n28)(n68,278,n30)(n68,280,n33)(n68,284,n33)(n68,285,n36)(n68,291,n38)(n68,292,n40)(n68,294,n42)(n68,299,n44)(n68,301,n46)(n68,310,n38)(n68,318,n33)(n68,320,n33)(n68,322,n31)(n68,323,n30)(n68,332,n22)(n68,335,n17)(n68,347,n12)(n68,351,n4)(n68,355,n4)(n68,357,n4)(n68,360,n4)(n68,366,n4)(n68,383,n4)(n68,388,n4)(n68,398,n4)(n69,0,n4)(n69,250,n7)(n69,251,n9)(n69,253,n9)(n69,256,n12)(n69,257,n13)(n69,260,n13)(n69,265,n17)(n69,266,n19)(n69,268,n19)(n69,270,n22)(n69,271,n24)(n69,274,n26)(n69,277,n28)(n69,278,n30)(n69,280,n33)(n69,284,n33)(n69,285,n36)(n69,291,n38)(n69,292,n40)(n69,294,n42)(n69,299,n44)(n69,301,n44)(n69,310,n38)(n69,318,n31)(n69,320,n30)(n69,322,n28)(n69,323,n28)(n69,332,n17)(n69,335,n15)(n69,347,n7)(n69,351,n4)(n69,355,n4)(n69,357,n4)(n69,360,n4)(n69,366,n4)(n69,383,n4)(n69,388,n4)(n69,398,n4)(n69,400,n4)(n70,0,n4)(n70,250,n7)(n70,251,n9)(n70,253,n9)(n70,256,n12)(n70,257,n13)(n70,260,n13)(n70,265,n17)(n70,266,n19)(n70,268,n19)(n70,270,n22)(n70,271,n24)(n70,274,n26)(n70,277,n28)(n70,278,n30)(n70,280,n33)(n70,284,n33)(n70,285,n36)(n70,291,n38)(n70,292,n40)(n70,294,n38)(n70,299,n36)(n70,301,n33)(n70,310,n26)(n70,318,n17)(n70,320,n15)(n70,322,n15)(n70,323,n15)(n70,332,n9)(n70,335,n4)(n70,347,n4)(n70,351,n4)(n70,355,n4)(n70,357,n4)(n70,360,n4)(n70,366,n4)(n70,383,n4)(n70,388,n4)(n70,398,n4)(n70,400,n4)(n70,403,n4)(n71,0,n4)(n71,250,n7)(n71,251,n9)(n71,253,n9)(n71,256,n12)(n71,257,n13)(n71,260,n13)(n71,265,n17)(n71,266,n19)(n71,268,n19)(n71,270,n22)(n71,271,n24)(n71,274,n26)(n71,277,n28)(n71,278,n30)(n71,280,n33)(n71,284,n33)(n71,285,n36)(n71,291,n38)(n71,292,n38)(n71,294,n38)(n71,299,n33)(n71,301,n33)(n71,310,n26)(n71,318,n15)(n71,320,n15)(n71,322,n13)(n71,323,n13)(n71,332,n4)(n71,335,n4)(n71,347,n4)(n71,351,n4)(n71,355,n4)(n71,357,n4)(n71,360,n4)(n71,366,n4)(n71,383,n4)(n71,388,n4)(n71,398,n4)(n71,400,n4)(n71,403,n4)(n71,417,n4)(n72,0,n4)(n72,250,n7)(n72,251,n9)(n72,253,n9)(n72,256,n12)(n72,257,n13)(n72,260,n13)(n72,265,n17)(n72,266,n19)(n72,268,n19)(n72,270,n22)(n72,271,n24)(n72,274,n26)(n72,277,n28)(n72,278,n30)(n72,280,n33)(n72,284,n33)(n72,285,n36)(n72,291,n38)(n72,292,n38)(n72,294,n33)(n72,299,n31)(n72,301,n28)(n72,310,n19)(n72,318,n13)(n72,320,n13)(n72,322,n12)(n72,323,n12)(n72,332,n4)(n72,335,n4)(n72,347,n4)(n72,351,n4)(n72,355,n4)(n72,357,n4)(n72,360,n4)(n72,366,n4)(n72,383,n4)(n72,388,n4)(n72,398,n4)(n72,400,n4)(n72,403,n4)(n72,417,n4)(n72,419,n4)(n73,0,n4)(n73,250,n7)(n73,251,n9)(n73,253,n9)(n73,256,n12)(n73,257,n13)(n73,260,n13)(n73,265,n17)(n73,266,n19)(n73,268,n19)(n73,270,n22)(n73,271,n24)(n73,274,n26)(n73,277,n28)(n73,278,n30)(n73,280,n33)(n73,284,n33)(n73,285,n36)(n73,291,n38)(n73,292,n36)(n73,294,n33)(n73,299,n30)(n73,301,n28)(n73,310,n19)(n73,318,n13)(n73,320,n74)(n73,322,n12)(n73,323,n12)(n73,332,n4)(n73,335,n4)(n73,347,n4)(n73,351,n4)(n73,355,n4)(n73,357,n4)(n73,360,n4)(n73,366,n4)(n73,383,n4)(n73,388,n4)(n73,398,n4)(n73,400,n4)(n73,403,n4)(n73,417,n4)(n73,419,n4)(n73,423,n4)(n74,0,nodeT)(n74,250,nodeT)(n74,251,nodeT)(n74,253,nodeT)(n74,256,nodeT)(n75,0,n4)(n75,250,n7)(n75,251,n9)(n75,253,n9)(n75,256,n12)(n75,257,n13)(n75,260,n13)(n75,265,n17)(n75,266,n19)(n75,268,n19)(n75,270,n22)(n75,271,n24)(n75,274,n26)(n75,277,n28)(n75,278,n30)(n75,280,n33)(n75,284,n33)(n75,285,n36)(n75,291,n33)(n75,292,n33)(n75,294,n31)(n75,299,n26)(n75,301,n26)(n75,310,n15)(n75,318,n12)(n75,320,n9)(n75,322,n7)(n75,323,n4)(n75,332,n4)(n75,335,n4)(n75,347,n4)(n75,351,n4)(n75,355,n4)(n75,357,n4)(n75,360,n4)(n75,366,n4)(n75,383,n4)(n75,388,n4)(n75,398,n4)(n75,400,n4)(n75,403,n4)(n75,417,n4)(n75,419,n4)(n75,423,n4)(n75,424,n4)(n76,0,n4)(n76,250,n7)(n76,251,n9)(n76,253,n9)(n76,256,n12)(n76,257,n13)(n76,260,n13)(n76,265,n17)(n76,266,n19)(n76,268,n19)(n76,270,n22)(n76,271,n24)(n76,274,n26)(n76,277,n28)(n76,278,n30)(n76,280,n33)(n76,284,n30)(n76,285,n28)(n76,291,n24)(n76,292,n22)(n76,294,n19)(n76,299,n15)(n76,301,n15)(n76,310,n9)(n76,318,n4)(n76,320,n4)(n76,322,n4)(n76,323,n4)(n76,332,n4)(n76,335,n4)(n76,347,n4)(n76,351,n4)(n76,355,n4)(n76,357,n4)(n76,360,n4)(n76,366,n4)(n76,383,n4)(n76,388,n4)(n76,398,n4)(n76,400,n4)(n76,403,n4)(n76,417,n4)(n76,419,n4)(n76,423,n4)(n76,424,n4)(n76,428,n4)(n77,0,n4)(n77,250,n7)(n77,251,n9)(n77,253,n9)(n77,256,n12)(n77,257,n13)(n77,260,n13)(n77,265,n17)(n77,266,n19)(n77,268,n19)(n77,270,n22)(n77,271,n24)(n77,274,n26)(n77,277,n28)(n77,278,n30)(n77,280,n33)(n77,284,n28)(n77,285,n28)(n77,291,n22)(n77,292,n22)(n77,294,n19)(n77,299,n15)(n77,301,n13)(n77,310,n7)(n77,318,n4)(n77,320,n4)(n77,322,n4)(n77,323,n4)(n77,332,n4)(n77,335,n4)(n77,347,n4)(n77,351,n4)(n77,355,n4)(n77,357,n4)(n77,360,n4)(n77,366,n4)(n77,383,n4)(n77,388,n4)(n77,398,n4)(n77,400,n4)(n77,403,n4)(n77,417,n4)(n77,419,n4)(n77,423,n4)(n77,424,n4)(n77,428,n4)(n77,439,n4)(n78,0,n4)(n78,250,n7)(n78,251,n9)(n78,253,n9)(n78,256,n12)(n78,257,n13)(n78,260,n13)(n78,265,n17)(n78,266,n19)(n78,268,n19)(n78,270,n22)(n78,271,n24)(n78,274,n26)(n78,277,n28)(n78,278,n30)(n78,280,n31)(n78,284,n28)(n78,285,n28)(n78,291,n22)(n78,292,n19)(n78,294,n17)(n78,299,n15)(n78,301,n13)(n78,310,n4)(n78,318,n4)(n78,320,n4)(n78,322,n4)(n78,323,n4)(n78,332,n4)(n78,335,n4)(n78,347,n4)(n78,351,n4)(n78,355,n4)(n78,357,n4)(n78,360,n4)(n78,366,n4)(n78,383,n4)(n78,388,n4)(n78,398,n4)(n78,400,n4)(n78,403,n4)(n78,417,n4)(n78,419,n4)(n78,423,n4)(n78,424,n4)(n78,428,n4)(n78,439,n4)(n78,440,n4)(n79,0,n4)(n79,250,n7)(n79,251,n9)(n79,253,n9)(n79,256,n12)(n79,257,n13)(n79,260,n13)(n79,265,n17)(n79,266,n19)(n79,268,n19)(n79,270,n22)(n79,271,n24)(n79,274,n26)(n79,277,n28)(n79,278,n28)(n79,280,n26)(n79,284,n22)(n79,285,n19)(n79,291,n15)(n79,292,n15)(n79,294,n13)(n79,299,n12)(n79,301,n9)(n79,310,n4)(n79,318,n4)(n79,320,n4)(n79,322,n4)(n79,323,n4)(n79,332,n4)(n79,335,n4)(n79,347,n4)(n79,351,n4)(n79,355,n4)(n79,357,n4)(n79,360,n4)(n79,366,n4)(n79,383,n4)(n79,388,n4)(n79,398,n4)(n79,400,n4)(n79,403,n4)(n79,417,n4)(n79,419,n4)(n79,423,n4)(n79,424,n4)(n79,428,n4)(n79,439,n4)(n79,440,n4)(n79,441,n4)(n80,0,n4)(n80,250,n7)(n80,251,n9)(n80,253,n9)(n80,256,n12)(n80,257,n13)(n80,260,n13)(n80,265,n17)(n80,266,n19)(n80,268,n19)(n80,270,n19)(n80,271,n17)(n80,274,n15)(n80,277,n13)(n80,278,n13)(n80,280,n74)(n80,284,n9)(n80,285,n9)(n80,291,n4)(n80,292,n4)(n80,294,n4)(n80,299,n4)(n80,301,n4)(n80,310,n4)(n80,318,n4)(n80,320,n4)(n80,322,n4)(n80,323,n4)(n80,332,n4)(n80,335,n4)(n80,347,n4)(n80,351,n4)(n80,355,n4)(n80,357,n4)(n80,360,n4)(n80,366,n4)(n80,383,n4)(n80,388,n4)(n80,398,n4)(n80,400,n4)(n80,403,n4)(n80,417,n4)(n80,419,n4)(n80,423,n4)(n80,424,n4)(n80,428,n4)(n80,439,n4)(n80,440,n4)(n80,441,n4)(n80,448,n4)(n81,0,n4)(n81,250,n7)(n81,251,n9)(n81,253,n9)(n81,256,n12)(n81,257,n13)(n81,260,n13)(n81,265,n15)(n81,266,n15)(n81,268,n15)(n81,270,n13)(n81,271,n13)(n81,274,n12)(n81,277,n9)(n81,278,n7)(n81,280,n4)(n81,284,n4)(n81,285,n4)(n81,291,n4)(n81,292,n4)(n81,294,n4)(n81,299,n4)(n81,301,n4)(n81,310,n4)(n81,318,n4)(n81,320,n4)(n81,322,n4)(n81,323,n4)(n81,332,n4)(n81,335,n4)(n81,347,n4)(n81,351,n4)(n81,355,n4)(n81,357,n4)(n81,360,n4)(n81,366,n4)(n81,383,n4)(n81,388,n4)(n81,398,n4)(n81,400,n4)(n81,403,n4)(n81,417,n4)(n81,419,n4)(n81,423,n4)(n81,424,n4)(n81,428,n4)(n81,439,n4)(n81,440,n4)(n81,441,n4)(n81,448,n4)(n81,464,n4)(n82,0,n4)(n82,250,n7)(n82,251,n9)(n82,253,n9)(n82,256,n12)(n82,257,n13)(n82,260,n13)(n82,265,n13)(n82,266,n74)(n82,268,n12)(n82,270,n9)(n82,271,n9)(n82,274,n4)(n82,277,n4)(n82,278,n4)(n82,280,n4)(n82,284,n4)(n82,285,n4)(n82,291,n4)(n82,292,n4)(n82,294,n4)(n82,299,n4)(n82,301,n4)(n82,310,n4)(n82,318,n4)(n82,320,n4)(n82,322,n4)(n82,323,n4)(n82,332,n4)(n82,335,n4)(n82,347,n4)(n82,351,n4)(n82,355,n4)(n82,357,n4)(n82,360,n4)(n82,366,n4)(n82,383,n4)(n82,388,n4)(n82,398,n4)(n82,400,n4)(n82,403,n4)(n82,417,n4)(n82,419,n4)(n82,423,n4)(n82,424,n4)(n82,428,n4)(n82,439,n4)(n82,440,n4)(n82,441,n4)(n82,448,n4)(n82,464,n4)(n82,472,n4)(n83,0,n4)(n83,250,n7)(n83,251,n9)(n83,253,n9)(n83,256,n12)(n83,257,n9)(n83,260,n4)(n83,265,n4)(n83,266,n4)(n83,268,n4)(n83,270,n4)(n83,271,n4)(n83,274,n4)(n83,277,n4)(n83,278,n4)(n83,280,n4)(n83,284,n4)(n83,285,n4)(n83,291,n4)(n83,292,n4)(n83,294,n4)(n83,299,n4)(n83,301,n4)(n83,310,n4)(n83,318,n4)(n83,320,n4)(n83,322,n4)(n83,323,n4)(n83,332,n4)(n83,335,n4)(n83,347,n4)(n83,351,n4)(n83,355,n4)(n83,357,n4)(n83,360,n4)(n83,366,n4)(n83,383,n4)(n83,388,n4)(n83,398,n4)(n83,400,n4)(n83,403,n4)(n83,417,n4)(n83,419,n4)(n83,423,n4)(n83,424,n4)(n83,428,n4)(n83,439,n4)(n83,440,n4)(n83,441,n4)(n83,448,n4)(n83,464,n4)(n83,472,n4)(n83,478,n4) </transitions>
      </mdd>
      <args> b[0][] </args>
      <args> b[1][] </args>
      <args> b[2][] </args>
      <args> b[3][] </args>
      <args> b[4][] </args>
      <args> b[5][] </args>
      <args> b[6][] </args>
      <args> b[7][] </args>
      <args> b[8][] </args>
      <args> b[9][] </args>
      <args> b[10][] </args>
      <args> b[11][] </args>
      <args> b[12][] </args>
      <args> b[13][] </args>
      <args> b[14][] </args>
      <args> b[15][] </args>
      <args> b[16][] </args>
      <args> b[17][] </args>
      <args> b[18][] </args>
      <args> b[19][] </args>
      <args> b[20][] </args>
      <args> b[21][] </args>
      <args> b[22][] </args>
    </group>
    <cardinality>
      <list> b[][] </list>
      <values> 0 250 251 253 256 257 260 265 266 268 270 271 274 277 278 280 284 285 291 292 294 299 301 310 318 320 322 323 332 335 347 351 355 357 360 366 383 388 398 400 403 417 419 423 424 428 439 440 441 448 464 472 478 491 </values>
      <occurs> 9 2 2 1 1 3 1 2 2 1 1 1 1 1 1 2 1 1 1 1 1 1 1 1 1 1 1 1 1 1 1 1 1 1 1 1 1 1 1 1 1 1 1 1 1 1 1 1 1 1 1 1 1 1 </occurs>
    </cardinality>
    <lex class="symmetryBreaking">
      <list> b[0][] </list>
      <list> b[1][] </list>
      <list> b[2][] </list>
      <list> b[3][] </list>
      <list> b[4][] </list>
      <list> b[5][] </list>
      <list> b[6][] </list>
      <list> b[7][] </list>
      <list> b[8][] </list>
      <list> b[9][] </list>
      <list> b[10][] </list>
      <list> b[11][] </list>
      <list> b[12][] </list>
      <list> b[13][] </list>
      <list> b[14][] </list>
      <list> b[15][] </list>
      <list> b[16][] </list>
      <list> b[17][] </list>
      <list> b[18][] </list>
      <list> b[19][] </list>
      <list> b[20][] </list>
      <list> b[21][] </list>
      <list> b[22][] </list>
      <operator> ge </operator>
    </lex>
    <count>
      <list> b[][0] </list>
      <values> 0 </values>
      <condition> (eq,x) </condition>
    </count>
  </constraints>
  <objectives>
    <maximize> x </maximize>
  </objectives>
</instance>
